47
3 1 7
3 2 7
4 0 5
5 0 6
5 1 7
5 2 12
6 4 2
6 5 11
7 3 2
7 4 10
7 6 11
8 3 1
8 7 1
9 5 10
9 6 11
10 3 1
10 5 6
10 6 11
10 7 2
11 2 2
11 3 9
11 4 5
11 5 8
11 6 6
11 8 10
11 9 11
11 10 1
12 3 9
12 4 10
12 10 3
13 0 7
13 3 6
13 5 1
13 8 2
13 10 11
14 1 11
14 2 9
14 4 11
14 6 1
14 8 3
14 9 7
14 10 9
14 11 11
14 12 4
15 3 7
15 5 3
15 6 8
15 9 12
15 10 8
15 11 11
15 13 9
16 0 10
16 1 1
16 4 3
16 6 10
16 10 9
16 12 1
16 14 5
17 0 3
17 1 6
17 2 12
17 3 1
17 6 5
17 7 5
17 11 11
17 16 6
18 0 7
18 1 5
18 2 7
18 3 3
18 9 10
18 11 2
18 14 6
18 17 8
19 1 3
19 2 12
19 3 12
19 4 7
19 5 8
19 6 2
19 7 3
19 11 8
19 13 1
19 14 3
19 16 1
19 17 4
20 2 6
20 4 10
20 5 10
20 7 4
20 8 11
20 10 1
20 11 9
20 15 6
20 16 3
20 19 1
21 2 8
21 4 7
21 11 1
21 13 6
21 16 4
21 17 3
21 18 9
22 0 2
22 4 5
22 9 3
22 11 10
22 14 8
22 15 4
22 16 6
22 18 11
22 21 8
23 0 10
23 5 4
23 7 2
23 13 4
23 16 2
23 17 5
23 18 10
24 1 7
24 3 5
24 4 2
24 5 6
24 6 7
24 7 4
24 8 7
24 9 5
24 11 3
24 13 1
24 14 1
24 15 5
24 16 6
24 17 3
24 18 3
24 20 11
24 21 2
24 22 2
24 23 11
25 0 3
25 1 11
25 2 5
25 3 1
25 8 11
25 9 11
25 10 6
25 11 10
25 12 7
25 13 3
25 14 10
25 15 6
25 17 6
25 19 4
25 22 5
26 0 2
26 1 9
26 5 3
26 6 4
26 10 6
26 11 2
26 13 4
26 14 9
26 16 11
26 17 12
26 18 12
26 21 3
26 23 1
26 24 10
26 25 7
27 0 5
27 5 12
27 6 2
27 7 5
27 8 1
27 9 11
27 10 10
27 12 5
27 15 4
27 16 2
27 17 1
27 19 9
27 26 10
28 1 11
28 4 7
28 5 10
28 7 5
28 11 2
28 12 5
28 13 3
28 15 9
28 16 11
28 18 1
28 19 2
28 22 3
28 25 4
28 27 1
29 3 6
29 6 1
29 8 6
29 10 4
29 14 8
29 15 1
29 16 12
29 18 5
29 19 9
29 21 12
30 0 7
30 1 1
30 2 12
30 4 7
30 7 2
30 9 3
30 11 3
30 12 11
30 14 9
30 15 8
30 16 3
30 17 8
30 24 3
30 28 2
31 0 11
31 5 11
31 8 10
31 9 3
31 11 11
31 12 6
31 13 1
31 14 6
31 15 3
31 16 8
31 17 10
31 20 9
31 22 4
31 23 3
31 24 2
31 25 12
31 26 6
31 28 11
32 0 12
32 1 4
32 3 11
32 4 10
32 8 9
32 11 4
32 15 3
32 16 11
32 19 11
32 21 9
32 23 12
32 24 10
32 25 1
32 26 7
32 27 7
32 31 11
33 1 4
33 2 12
33 6 8
33 7 5
33 8 2
33 9 11
33 10 9
33 12 10
33 13 1
33 15 7
33 17 5
33 19 3
33 21 8
33 24 8
33 25 2
33 28 2
34 0 4
34 2 5
34 4 6
34 9 6
34 10 11
34 11 3
34 12 1
34 13 3
34 14 8
34 15 4
34 16 9
34 19 8
34 20 10
34 21 10
34 22 9
34 25 12
34 30 8
34 31 4
34 33 2
35 0 2
35 1 3
35 4 2
35 7 3
35 9 12
35 10 5
35 11 9
35 16 9
35 18 12
35 19 8
35 21 11
35 23 6
35 25 6
35 26 6
35 28 10
35 31 10
35 32 8
35 33 5
35 34 12
36 0 10
36 1 9
36 3 11
36 5 2
36 7 5
36 8 11
36 9 6
36 12 11
36 13 2
36 16 12
36 18 4
36 21 4
36 22 4
36 24 1
36 25 10
36 27 3
36 29 8
36 30 2
36 31 7
36 32 1
36 35 10
37 1 8
37 4 10
37 6 12
37 10 8
37 12 2
37 13 10
37 14 3
37 18 8
37 23 3
37 28 4
37 30 3
37 31 3
37 32 2
37 33 7
37 34 11
38 2 3
38 4 5
38 5 1
38 7 4
38 8 2
38 10 8
38 15 1
38 16 2
38 18 7
38 20 9
38 22 1
38 24 12
38 25 9
38 26 2
38 29 10
38 30 10
38 34 3
38 35 8
38 37 5
39 0 11
39 2 11
39 5 12
39 8 4
39 10 9
39 11 8
39 12 8
39 15 1
39 16 3
39 17 7
39 18 12
39 21 8
39 22 12
39 23 3
39 24 8
39 25 1
39 26 12
39 27 5
39 29 5
39 30 4
39 31 10
39 34 3
39 37 6
39 38 1
40 5 12
40 7 9
40 10 1
40 16 5
40 17 12
40 20 9
40 22 9
40 25 5
40 27 2
40 29 2
40 31 4
40 33 9
40 35 12
40 37 8
40 38 6
40 39 1
41 0 3
41 1 1
41 2 11
41 10 11
41 11 9
41 13 4
41 14 7
41 15 2
41 16 12
41 17 5
41 20 1
41 21 8
41 22 4
41 27 12
41 28 10
41 34 1
41 36 2
41 37 3
41 39 11
41 40 12
42 1 11
42 2 9
42 5 10
42 6 12
42 7 5
42 8 12
42 9 5
42 11 1
42 14 4
42 17 6
42 22 8
42 23 4
42 25 1
42 27 3
42 28 11
42 29 6
42 30 9
42 31 2
42 34 3
42 35 12
42 36 7
42 39 5
42 41 5
43 0 7
43 1 2
43 2 2
43 3 12
43 6 5
43 7 4
43 8 11
43 12 10
43 13 2
43 15 4
43 16 12
43 18 3
43 19 3
43 21 8
43 29 5
43 30 8
43 31 7
43 34 3
43 35 10
43 37 10
43 39 6
44 0 10
44 2 1
44 4 1
44 8 6
44 10 12
44 12 1
44 13 4
44 16 4
44 17 2
44 19 3
44 22 5
44 23 4
44 24 6
44 25 9
44 27 11
44 30 12
44 36 1
44 37 9
44 38 3
44 39 2
44 40 8
44 41 6
44 43 4
45 0 1
45 1 8
45 3 6
45 5 12
45 6 9
45 7 2
45 8 12
45 9 8
45 12 7
45 13 1
45 14 4
45 16 10
45 18 8
45 21 2
45 23 4
45 24 10
45 25 4
45 26 8
45 30 10
45 31 2
45 33 9
45 36 2
45 37 6
45 38 9
45 39 12
45 41 12
46 0 10
46 4 4
46 5 4
46 6 9
46 8 10
46 9 6
46 11 7
46 12 12
46 13 12
46 14 7
46 15 4
46 16 1
46 17 5
46 20 3
46 22 11
46 25 5
46 28 7
46 30 3
46 31 11
46 33 5
46 37 9
46 39 12
46 40 9
46 42 7
46 45 12
